100
1) [ 67 66 62 80 79 77 73 70 71 76 86 87 90 0 3 99 100 96 97 93 92 94 95 98 0 65 74 72 61 64 69 0 12 14 16 15 19 18 17 13 0 63 81 78 82 83 84 85 88 89 91 0 47 46 48 50 51 31 33 32 0 21 10 11 9 8 7 6 4 2 1 75 5 0 59 60 58 56 53 54 57 55 68 0 41 40 44 45 42 43 24 27 25 22 20 0 49 52 35 37 38 39 36 34 29 30 28 26 23 -1 -1 -1 -1 -1 -1 -1 -1 -1 -1 -1 -1 -1 -1 -1 -1 ] [ 934 -0 ] [ 0 0 0 ] # 0 # 0 - 
2) [ 67 66 62 80 79 77 73 70 71 76 86 87 90 0 3 99 100 96 97 93 92 94 95 98 0 65 74 72 61 64 69 0 12 14 16 15 19 18 17 13 0 63 81 78 82 83 84 85 88 89 91 0 47 46 48 50 51 31 33 32 0 21 10 11 9 8 7 6 4 2 1 75 5 0 59 60 58 56 53 54 57 55 68 0 41 40 44 45 42 43 24 27 25 22 20 0 49 52 35 37 38 39 36 34 29 30 28 26 23 -1 -1 -1 -1 -1 -1 -1 -1 -1 -1 -1 -1 -1 -1 -1 -1 ] [ 934 -0 ] [ 0 0 0 ] # 0 # 0 - 
3) [ 67 66 62 80 79 77 73 70 71 76 86 87 90 0 3 99 100 96 97 93 92 94 95 98 0 65 74 72 61 64 69 0 12 14 16 15 19 18 17 13 0 63 81 78 82 83 84 85 88 89 91 0 47 46 48 50 51 31 33 32 0 21 10 11 9 8 7 6 4 2 1 75 5 0 59 60 58 56 53 54 57 55 68 0 41 40 44 45 42 43 24 27 25 22 20 0 49 52 35 37 38 39 36 34 29 30 28 26 23 -1 -1 -1 -1 -1 -1 -1 -1 -1 -1 -1 -1 -1 -1 -1 -1 ] [ 934 -0 ] [ 0 0 0 ] # 0 # 0 - 
4) [ 67 66 62 80 79 77 73 70 71 76 86 87 90 0 3 99 100 96 97 93 92 94 95 98 0 65 74 72 61 64 69 0 12 14 16 15 19 18 17 13 0 63 81 78 82 83 84 85 88 89 91 0 47 46 48 50 51 31 33 32 0 21 10 11 9 8 7 6 4 2 1 75 5 0 59 60 58 56 53 54 57 55 68 0 41 40 44 45 42 43 24 27 25 22 20 0 49 52 35 37 38 39 36 34 29 30 28 26 23 -1 -1 -1 -1 -1 -1 -1 -1 -1 -1 -1 -1 -1 -1 -1 -1 ] [ 934 -0 ] [ 0 0 0 ] # 0 # 0 - 
5) [ 67 66 62 80 79 77 73 70 71 76 86 87 90 0 3 99 100 96 97 93 92 94 95 98 0 65 74 72 61 64 69 0 12 14 16 15 19 18 17 13 0 63 81 78 82 83 84 85 88 89 91 0 47 46 48 50 51 31 33 32 0 21 10 11 9 8 7 6 4 2 1 75 5 0 59 60 58 56 53 54 57 55 68 0 41 40 44 45 42 43 24 27 25 22 20 0 49 52 35 37 38 39 36 34 29 30 28 26 23 -1 -1 -1 -1 -1 -1 -1 -1 -1 -1 -1 -1 -1 -1 -1 -1 ] [ 934 -0 ] [ 0 0 0 ] # 0 # 0 - 
6) [ 67 66 62 80 79 77 73 70 71 76 86 87 90 0 3 99 100 96 97 93 92 94 95 98 0 65 74 72 61 64 69 0 12 14 16 15 19 18 17 13 0 63 81 78 82 83 84 85 88 89 91 0 47 46 48 50 51 31 33 32 0 21 10 11 9 8 7 6 4 2 1 75 5 0 59 60 58 56 53 54 57 55 68 0 41 40 44 45 42 43 24 27 25 22 20 0 49 52 35 37 38 39 36 34 29 30 28 26 23 -1 -1 -1 -1 -1 -1 -1 -1 -1 -1 -1 -1 -1 -1 -1 -1 ] [ 934 -0 ] [ 0 0 0 ] # 0 # 0 - 
7) [ 67 66 62 80 79 77 73 70 71 76 86 87 90 0 3 99 100 96 97 93 92 94 95 98 0 65 74 72 61 64 69 0 12 14 16 15 19 18 17 13 0 63 81 78 82 83 84 85 88 89 91 0 47 46 48 50 51 31 33 32 0 21 10 11 9 8 7 6 4 2 1 75 5 0 59 60 58 56 53 54 57 55 68 0 41 40 44 45 42 43 24 27 25 22 20 0 49 52 35 37 38 39 36 34 29 30 28 26 23 -1 -1 -1 -1 -1 -1 -1 -1 -1 -1 -1 -1 -1 -1 -1 -1 ] [ 934 -0 ] [ 0 0 0 ] # 0 # 0 - 
8) [ 67 66 62 80 79 77 73 70 71 76 86 87 90 0 3 99 100 96 97 93 92 94 95 98 0 65 74 72 61 64 69 0 12 14 16 15 19 18 17 13 0 63 81 78 82 83 84 85 88 89 91 0 47 46 48 50 51 31 33 32 0 21 10 11 9 8 7 6 4 2 1 75 5 0 59 60 58 56 53 54 57 55 68 0 41 40 44 45 42 43 24 27 25 22 20 0 49 52 35 37 38 39 36 34 29 30 28 26 23 -1 -1 -1 -1 -1 -1 -1 -1 -1 -1 -1 -1 -1 -1 -1 -1 ] [ 934 -0 ] [ 0 0 0 ] # 0 # 0 - 
9) [ 67 66 62 80 79 77 73 70 71 76 86 87 90 0 3 99 100 96 97 93 92 94 95 98 0 65 74 72 61 64 69 0 12 14 16 15 19 18 17 13 0 63 81 78 82 83 84 85 88 89 91 0 47 46 48 50 51 31 33 32 0 21 10 11 9 8 7 6 4 2 1 75 5 0 59 60 58 56 53 54 57 55 68 0 41 40 44 45 42 43 24 27 25 22 20 0 49 52 35 37 38 39 36 34 29 30 28 26 23 -1 -1 -1 -1 -1 -1 -1 -1 -1 -1 -1 -1 -1 -1 -1 -1 ] [ 934 -0 ] [ 0 0 0 ] # 0 # 0 - 
10) [ 67 66 62 80 79 77 73 70 71 76 86 87 90 0 3 99 100 96 97 93 92 94 95 98 0 65 74 72 61 64 69 0 12 14 16 15 19 18 17 13 0 63 81 78 82 83 84 85 88 89 91 0 47 46 48 50 51 31 33 32 0 21 10 11 9 8 7 6 4 2 1 75 5 0 59 60 58 56 53 54 57 55 68 0 41 40 44 45 42 43 24 27 25 22 20 0 49 52 35 37 38 39 36 34 29 30 28 26 23 -1 -1 -1 -1 -1 -1 -1 -1 -1 -1 -1 -1 -1 -1 -1 -1 ] [ 934 -0 ] [ 0 0 0 ] # 0 # 0 - 
11) [ 67 66 62 80 79 77 73 70 71 76 86 87 90 0 3 99 100 96 97 93 92 94 95 98 0 65 74 72 61 64 69 0 12 14 16 15 19 18 17 13 0 63 81 78 82 83 84 85 88 89 91 0 47 46 48 50 51 31 33 32 0 21 10 11 9 8 7 6 4 2 1 75 5 0 59 60 58 56 53 54 57 55 68 0 41 40 44 45 42 43 24 27 25 22 20 0 49 52 35 37 38 39 36 34 29 30 28 26 23 -1 -1 -1 -1 -1 -1 -1 -1 -1 -1 -1 -1 -1 -1 -1 -1 ] [ 934 -0 ] [ 0 0 0 ] # 0 # 0 - 
12) [ 67 66 62 80 79 77 73 70 71 76 86 87 90 0 3 99 100 96 97 93 92 94 95 98 0 65 74 72 61 64 69 0 12 14 16 15 19 18 17 13 0 63 81 78 82 83 84 85 88 89 91 0 47 46 48 50 51 31 33 32 0 21 10 11 9 8 7 6 4 2 1 75 5 0 59 60 58 56 53 54 57 55 68 0 41 40 44 45 42 43 24 27 25 22 20 0 49 52 35 37 38 39 36 34 29 30 28 26 23 -1 -1 -1 -1 -1 -1 -1 -1 -1 -1 -1 -1 -1 -1 -1 -1 ] [ 934 -0 ] [ 0 0 0 ] # 0 # 0 - 
13) [ 67 66 62 80 79 77 73 70 71 76 86 87 90 0 3 99 100 96 97 93 92 94 95 98 0 65 74 72 61 64 69 0 12 14 16 15 19 18 17 13 0 63 81 78 82 83 84 85 88 89 91 0 47 46 48 50 51 31 33 32 0 21 10 11 9 8 7 6 4 2 1 75 5 0 59 60 58 56 53 54 57 55 68 0 41 40 44 45 42 43 24 27 25 22 20 0 49 52 35 37 38 39 36 34 29 30 28 26 23 -1 -1 -1 -1 -1 -1 -1 -1 -1 -1 -1 -1 -1 -1 -1 -1 ] [ 934 -0 ] [ 0 0 0 ] # 0 # 0 - 
14) [ 67 66 62 80 79 77 73 70 71 76 86 87 90 0 3 99 100 96 97 93 92 94 95 98 0 65 74 72 61 64 69 0 12 14 16 15 19 18 17 13 0 63 81 78 82 83 84 85 88 89 91 0 47 46 48 50 51 31 33 32 0 21 10 11 9 8 7 6 4 2 1 75 5 0 59 60 58 56 53 54 57 55 68 0 41 40 44 45 42 43 24 27 25 22 20 0 49 52 35 37 38 39 36 34 29 30 28 26 23 -1 -1 -1 -1 -1 -1 -1 -1 -1 -1 -1 -1 -1 -1 -1 -1 ] [ 934 -0 ] [ 0 0 0 ] # 0 # 0 - 
15) [ 67 66 62 80 79 77 73 70 71 76 86 87 90 0 3 99 100 96 97 93 92 94 95 98 0 65 74 72 61 64 69 0 12 14 16 15 19 18 17 13 0 63 81 78 82 83 84 85 88 89 91 0 47 46 48 50 51 31 33 32 0 21 10 11 9 8 7 6 4 2 1 75 5 0 59 60 58 56 53 54 57 55 68 0 41 40 44 45 42 43 24 27 25 22 20 0 49 52 35 37 38 39 36 34 29 30 28 26 23 -1 -1 -1 -1 -1 -1 -1 -1 -1 -1 -1 -1 -1 -1 -1 -1 ] [ 934 -0 ] [ 0 0 0 ] # 0 # 0 - 
16) [ 67 66 62 80 79 77 73 70 71 76 86 87 90 0 3 99 100 96 97 93 92 94 95 98 0 65 74 72 61 64 69 0 12 14 16 15 19 18 17 13 0 63 81 78 82 83 84 85 88 89 91 0 47 46 48 50 51 31 33 32 0 21 10 11 9 8 7 6 4 2 1 75 5 0 59 60 58 56 53 54 57 55 68 0 41 40 44 45 42 43 24 27 25 22 20 0 49 52 35 37 38 39 36 34 29 30 28 26 23 -1 -1 -1 -1 -1 -1 -1 -1 -1 -1 -1 -1 -1 -1 -1 -1 ] [ 934 -0 ] [ 0 0 0 ] # 0 # 0 - 
17) [ 67 66 62 80 79 77 73 70 71 76 86 87 90 0 3 99 100 96 97 93 92 94 95 98 0 65 74 72 61 64 69 0 12 14 16 15 19 18 17 13 0 63 81 78 82 83 84 85 88 89 91 0 47 46 48 50 51 31 33 32 0 21 10 11 9 8 7 6 4 2 1 75 5 0 59 60 58 56 53 54 57 55 68 0 41 40 44 45 42 43 24 27 25 22 20 0 49 52 35 37 38 39 36 34 29 30 28 26 23 -1 -1 -1 -1 -1 -1 -1 -1 -1 -1 -1 -1 -1 -1 -1 -1 ] [ 934 -0 ] [ 0 0 0 ] # 0 # 0 - 
18) [ 67 66 62 80 79 77 73 70 71 76 86 87 90 0 3 99 100 96 97 93 92 94 95 98 0 65 74 72 61 64 69 0 12 14 16 15 19 18 17 13 0 63 81 78 82 83 84 85 88 89 91 0 47 46 48 50 51 31 33 32 0 21 10 11 9 8 7 6 4 2 1 75 5 0 59 60 58 56 53 54 57 55 68 0 41 40 44 45 42 43 24 27 25 22 20 0 49 52 35 37 38 39 36 34 29 30 28 26 23 -1 -1 -1 -1 -1 -1 -1 -1 -1 -1 -1 -1 -1 -1 -1 -1 ] [ 934 -0 ] [ 0 0 0 ] # 0 # 0 - 
19) [ 67 66 62 80 79 77 73 70 71 76 86 87 90 0 3 99 100 96 97 93 92 94 95 98 0 65 74 72 61 64 69 0 12 14 16 15 19 18 17 13 0 63 81 78 82 83 84 85 88 89 91 0 47 46 48 50 51 31 33 32 0 21 10 11 9 8 7 6 4 2 1 75 5 0 59 60 58 56 53 54 57 55 68 0 41 40 44 45 42 43 24 27 25 22 20 0 49 52 35 37 38 39 36 34 29 30 28 26 23 -1 -1 -1 -1 -1 -1 -1 -1 -1 -1 -1 -1 -1 -1 -1 -1 ] [ 934 -0 ] [ 0 0 0 ] # 0 # 0 - 
20) [ 67 66 62 80 79 77 73 70 71 76 86 87 90 0 3 99 100 96 97 93 92 94 95 98 0 65 74 72 61 64 69 0 12 14 16 15 19 18 17 13 0 63 81 78 82 83 84 85 88 89 91 0 47 46 48 50 51 31 33 32 0 21 10 11 9 8 7 6 4 2 1 75 5 0 59 60 58 56 53 54 57 55 68 0 41 40 44 45 42 43 24 27 25 22 20 0 49 52 35 37 38 39 36 34 29 30 28 26 23 -1 -1 -1 -1 -1 -1 -1 -1 -1 -1 -1 -1 -1 -1 -1 -1 ] [ 934 -0 ] [ 0 0 0 ] # 0 # 0 - 
21) [ 67 66 62 80 79 77 73 70 71 76 86 87 90 0 3 99 100 96 97 93 92 94 95 98 0 65 74 72 61 64 69 0 12 14 16 15 19 18 17 13 0 63 81 78 82 83 84 85 88 89 91 0 47 46 48 50 51 31 33 32 0 21 10 11 9 8 7 6 4 2 1 75 5 0 59 60 58 56 53 54 57 55 68 0 41 40 44 45 42 43 24 27 25 22 20 0 49 52 35 37 38 39 36 34 29 30 28 26 23 -1 -1 -1 -1 -1 -1 -1 -1 -1 -1 -1 -1 -1 -1 -1 -1 ] [ 934 -0 ] [ 0 0 0 ] # 0 # 0 - 
22) [ 67 66 62 80 79 77 73 70 71 76 86 87 90 0 3 99 100 96 97 93 92 94 95 98 0 65 74 72 61 64 69 0 12 14 16 15 19 18 17 13 0 63 81 78 82 83 84 85 88 89 91 0 47 46 48 50 51 31 33 32 0 21 10 11 9 8 7 6 4 2 1 75 5 0 59 60 58 56 53 54 57 55 68 0 41 40 44 45 42 43 24 27 25 22 20 0 49 52 35 37 38 39 36 34 29 30 28 26 23 -1 -1 -1 -1 -1 -1 -1 -1 -1 -1 -1 -1 -1 -1 -1 -1 ] [ 934 -0 ] [ 0 0 0 ] # 0 # 0 - 
23) [ 67 66 62 80 79 77 73 70 71 76 86 87 90 0 3 99 100 96 97 93 92 94 95 98 0 65 74 72 61 64 69 0 12 14 16 15 19 18 17 13 0 63 81 78 82 83 84 85 88 89 91 0 47 46 48 50 51 31 33 32 0 21 10 11 9 8 7 6 4 2 1 75 5 0 59 60 58 56 53 54 57 55 68 0 41 40 44 45 42 43 24 27 25 22 20 0 49 52 35 37 38 39 36 34 29 30 28 26 23 -1 -1 -1 -1 -1 -1 -1 -1 -1 -1 -1 -1 -1 -1 -1 -1 ] [ 934 -0 ] [ 0 0 0 ] # 0 # 0 - 
24) [ 67 66 62 80 79 77 73 70 71 76 86 87 90 0 3 99 100 96 97 93 92 94 95 98 0 65 74 72 61 64 69 0 12 14 16 15 19 18 17 13 0 63 81 78 82 83 84 85 88 89 91 0 47 46 48 50 51 31 33 32 0 21 10 11 9 8 7 6 4 2 1 75 5 0 59 60 58 56 53 54 57 55 68 0 41 40 44 45 42 43 24 27 25 22 20 0 49 52 35 37 38 39 36 34 29 30 28 26 23 -1 -1 -1 -1 -1 -1 -1 -1 -1 -1 -1 -1 -1 -1 -1 -1 ] [ 934 -0 ] [ 0 0 0 ] # 0 # 0 - 
25) [ 67 66 62 80 79 77 73 70 71 76 86 87 90 0 3 99 100 96 97 93 92 94 95 98 0 65 74 72 61 64 69 0 12 14 16 15 19 18 17 13 0 63 81 78 82 83 84 85 88 89 91 0 47 46 48 50 51 31 33 32 0 21 10 11 9 8 7 6 4 2 1 75 5 0 59 60 58 56 53 54 57 55 68 0 41 40 44 45 42 43 24 27 25 22 20 0 49 52 35 37 38 39 36 34 29 30 28 26 23 -1 -1 -1 -1 -1 -1 -1 -1 -1 -1 -1 -1 -1 -1 -1 -1 ] [ 934 -0 ] [ 0 0 0 ] # 0 # 0 - 
26) [ 67 66 62 80 79 77 73 70 71 76 86 87 90 0 3 99 100 96 97 93 92 94 95 98 0 65 74 72 61 64 69 0 12 14 16 15 19 18 17 13 0 63 81 78 82 83 84 85 88 89 91 0 47 46 48 50 51 31 33 32 0 21 10 11 9 8 7 6 4 2 1 75 5 0 59 60 58 56 53 54 57 55 68 0 41 40 44 45 42 43 24 27 25 22 20 0 49 52 35 37 38 39 36 34 29 30 28 26 23 -1 -1 -1 -1 -1 -1 -1 -1 -1 -1 -1 -1 -1 -1 -1 -1 ] [ 934 -0 ] [ 0 0 0 ] # 0 # 0 - 
27) [ 67 66 62 80 79 77 73 70 71 76 86 87 90 0 3 99 100 96 97 93 92 94 95 98 0 65 74 72 61 64 69 0 12 14 16 15 19 18 17 13 0 63 81 78 82 83 84 85 88 89 91 0 47 46 48 50 51 31 33 32 0 21 10 11 9 8 7 6 4 2 1 75 5 0 59 60 58 56 53 54 57 55 68 0 41 40 44 45 42 43 24 27 25 22 20 0 49 52 35 37 38 39 36 34 29 30 28 26 23 -1 -1 -1 -1 -1 -1 -1 -1 -1 -1 -1 -1 -1 -1 -1 -1 ] [ 934 -0 ] [ 0 0 0 ] # 0 # 0 - 
28) [ 67 66 62 80 79 77 73 70 71 76 86 87 90 0 3 99 100 96 97 93 92 94 95 98 0 65 74 72 61 64 69 0 12 14 16 15 19 18 17 13 0 63 81 78 82 83 84 85 88 89 91 0 47 46 48 50 51 31 33 32 0 21 10 11 9 8 7 6 4 2 1 75 5 0 59 60 58 56 53 54 57 55 68 0 41 40 44 45 42 43 24 27 25 22 20 0 49 52 35 37 38 39 36 34 29 30 28 26 23 -1 -1 -1 -1 -1 -1 -1 -1 -1 -1 -1 -1 -1 -1 -1 -1 ] [ 934 -0 ] [ 0 0 0 ] # 0 # 0 - 
29) [ 67 66 62 80 79 77 73 70 71 76 86 87 90 0 3 99 100 96 97 93 92 94 95 98 0 65 74 72 61 64 69 0 12 14 16 15 19 18 17 13 0 63 81 78 82 83 84 85 88 89 91 0 47 46 48 50 51 31 33 32 0 21 10 11 9 8 7 6 4 2 1 75 5 0 59 60 58 56 53 54 57 55 68 0 41 40 44 45 42 43 24 27 25 22 20 0 49 52 35 37 38 39 36 34 29 30 28 26 23 -1 -1 -1 -1 -1 -1 -1 -1 -1 -1 -1 -1 -1 -1 -1 -1 ] [ 934 -0 ] [ 0 0 0 ] # 0 # 0 - 
30) [ 67 66 62 80 79 77 73 70 71 76 86 87 90 0 3 99 100 96 97 93 92 94 95 98 0 65 74 72 61 64 69 0 12 14 16 15 19 18 17 13 0 63 81 78 82 83 84 85 88 89 91 0 47 46 48 50 51 31 33 32 0 21 10 11 9 8 7 6 4 2 1 75 5 0 59 60 58 56 53 54 57 55 68 0 41 40 44 45 42 43 24 27 25 22 20 0 49 52 35 37 38 39 36 34 29 30 28 26 23 -1 -1 -1 -1 -1 -1 -1 -1 -1 -1 -1 -1 -1 -1 -1 -1 ] [ 934 -0 ] [ 0 0 0 ] # 0 # 0 - 
31) [ 67 66 62 80 79 77 73 70 71 76 86 87 90 0 3 99 100 96 97 93 92 94 95 98 0 65 74 72 61 64 69 0 12 14 16 15 19 18 17 13 0 63 81 78 82 83 84 85 88 89 91 0 47 46 48 50 51 31 33 32 0 21 10 11 9 8 7 6 4 2 1 75 5 0 59 60 58 56 53 54 57 55 68 0 41 40 44 45 42 43 24 27 25 22 20 0 49 52 35 37 38 39 36 34 29 30 28 26 23 -1 -1 -1 -1 -1 -1 -1 -1 -1 -1 -1 -1 -1 -1 -1 -1 ] [ 934 -0 ] [ 0 0 0 ] # 0 # 0 - 
32) [ 67 66 62 80 79 77 73 70 71 76 86 87 90 0 3 99 100 96 97 93 92 94 95 98 0 65 74 72 61 64 69 0 12 14 16 15 19 18 17 13 0 63 81 78 82 83 84 85 88 89 91 0 47 46 48 50 51 31 33 32 0 21 10 11 9 8 7 6 4 2 1 75 5 0 59 60 58 56 53 54 57 55 68 0 41 40 44 45 42 43 24 27 25 22 20 0 49 52 35 37 38 39 36 34 29 30 28 26 23 -1 -1 -1 -1 -1 -1 -1 -1 -1 -1 -1 -1 -1 -1 -1 -1 ] [ 934 -0 ] [ 0 0 0 ] # 0 # 0 - 
33) [ 67 66 62 80 79 77 73 70 71 76 86 87 90 0 3 99 100 96 97 93 92 94 95 98 0 65 74 72 61 64 69 0 12 14 16 15 19 18 17 13 0 63 81 78 82 83 84 85 88 89 91 0 47 46 48 50 51 31 33 32 0 21 10 11 9 8 7 6 4 2 1 75 5 0 59 60 58 56 53 54 57 55 68 0 41 40 44 45 42 43 24 27 25 22 20 0 49 52 35 37 38 39 36 34 29 30 28 26 23 -1 -1 -1 -1 -1 -1 -1 -1 -1 -1 -1 -1 -1 -1 -1 -1 ] [ 934 -0 ] [ 0 0 0 ] # 0 # 0 - 
34) [ 67 66 62 80 79 77 73 70 71 76 86 87 90 0 3 99 100 96 97 93 92 94 95 98 0 65 74 72 61 64 69 0 12 14 16 15 19 18 17 13 0 63 81 78 82 83 84 85 88 89 91 0 47 46 48 50 51 31 33 32 0 21 10 11 9 8 7 6 4 2 1 75 5 0 59 60 58 56 53 54 57 55 68 0 41 40 44 45 42 43 24 27 25 22 20 0 49 52 35 37 38 39 36 34 29 30 28 26 23 -1 -1 -1 -1 -1 -1 -1 -1 -1 -1 -1 -1 -1 -1 -1 -1 ] [ 934 -0 ] [ 0 0 0 ] # 0 # 0 - 
35) [ 67 66 62 80 79 77 73 70 71 76 86 87 90 0 3 99 100 96 97 93 92 94 95 98 0 65 74 72 61 64 69 0 12 14 16 15 19 18 17 13 0 63 81 78 82 83 84 85 88 89 91 0 47 46 48 50 51 31 33 32 0 21 10 11 9 8 7 6 4 2 1 75 5 0 59 60 58 56 53 54 57 55 68 0 41 40 44 45 42 43 24 27 25 22 20 0 49 52 35 37 38 39 36 34 29 30 28 26 23 -1 -1 -1 -1 -1 -1 -1 -1 -1 -1 -1 -1 -1 -1 -1 -1 ] [ 934 -0 ] [ 0 0 0 ] # 0 # 0 - 
36) [ 67 66 62 80 79 77 73 70 71 76 86 87 90 0 3 99 100 96 97 93 92 94 95 98 0 65 74 72 61 64 69 0 12 14 16 15 19 18 17 13 0 63 81 78 82 83 84 85 88 89 91 0 47 46 48 50 51 31 33 32 0 21 10 11 9 8 7 6 4 2 1 75 5 0 59 60 58 56 53 54 57 55 68 0 41 40 44 45 42 43 24 27 25 22 20 0 49 52 35 37 38 39 36 34 29 30 28 26 23 -1 -1 -1 -1 -1 -1 -1 -1 -1 -1 -1 -1 -1 -1 -1 -1 ] [ 934 -0 ] [ 0 0 0 ] # 0 # 0 - 
37) [ 67 66 62 80 79 77 73 70 71 76 86 87 90 0 3 99 100 96 97 93 92 94 95 98 0 65 74 72 61 64 69 0 12 14 16 15 19 18 17 13 0 63 81 78 82 83 84 85 88 89 91 0 47 46 48 50 51 31 33 32 0 21 10 11 9 8 7 6 4 2 1 75 5 0 59 60 58 56 53 54 57 55 68 0 41 40 44 45 42 43 24 27 25 22 20 0 49 52 35 37 38 39 36 34 29 30 28 26 23 -1 -1 -1 -1 -1 -1 -1 -1 -1 -1 -1 -1 -1 -1 -1 -1 ] [ 934 -0 ] [ 0 0 0 ] # 0 # 0 - 
38) [ 67 66 62 80 79 77 73 70 71 76 86 87 90 0 3 99 100 96 97 93 92 94 95 98 0 65 74 72 61 64 69 0 12 14 16 15 19 18 17 13 0 63 81 78 82 83 84 85 88 89 91 0 47 46 48 50 51 31 33 32 0 21 10 11 9 8 7 6 4 2 1 75 5 0 59 60 58 56 53 54 57 55 68 0 41 40 44 45 42 43 24 27 25 22 20 0 49 52 35 37 38 39 36 34 29 30 28 26 23 -1 -1 -1 -1 -1 -1 -1 -1 -1 -1 -1 -1 -1 -1 -1 -1 ] [ 934 -0 ] [ 0 0 0 ] # 0 # 0 - 
39) [ 67 66 62 80 79 77 73 70 71 76 86 87 90 0 3 99 100 96 97 93 92 94 95 98 0 65 74 72 61 64 69 0 12 14 16 15 19 18 17 13 0 63 81 78 82 83 84 85 88 89 91 0 47 46 48 50 51 31 33 32 0 21 10 11 9 8 7 6 4 2 1 75 5 0 59 60 58 56 53 54 57 55 68 0 41 40 44 45 42 43 24 27 25 22 20 0 49 52 35 37 38 39 36 34 29 30 28 26 23 -1 -1 -1 -1 -1 -1 -1 -1 -1 -1 -1 -1 -1 -1 -1 -1 ] [ 934 -0 ] [ 0 0 0 ] # 0 # 0 - 
40) [ 67 66 62 80 79 77 73 70 71 76 86 87 90 0 3 99 100 96 97 93 92 94 95 98 0 65 74 72 61 64 69 0 12 14 16 15 19 18 17 13 0 63 81 78 82 83 84 85 88 89 91 0 47 46 48 50 51 31 33 32 0 21 10 11 9 8 7 6 4 2 1 75 5 0 59 60 58 56 53 54 57 55 68 0 41 40 44 45 42 43 24 27 25 22 20 0 49 52 35 37 38 39 36 34 29 30 28 26 23 -1 -1 -1 -1 -1 -1 -1 -1 -1 -1 -1 -1 -1 -1 -1 -1 ] [ 934 -0 ] [ 0 0 0 ] # 0 # 0 - 
41) [ 67 66 62 80 79 77 73 70 71 76 86 87 90 0 3 99 100 96 97 93 92 94 95 98 0 65 74 72 61 64 69 0 12 14 16 15 19 18 17 13 0 63 81 78 82 83 84 85 88 89 91 0 47 46 48 50 51 31 33 32 0 21 10 11 9 8 7 6 4 2 1 75 5 0 59 60 58 56 53 54 57 55 68 0 41 40 44 45 42 43 24 27 25 22 20 0 49 52 35 37 38 39 36 34 29 30 28 26 23 -1 -1 -1 -1 -1 -1 -1 -1 -1 -1 -1 -1 -1 -1 -1 -1 ] [ 934 -0 ] [ 0 0 0 ] # 0 # 0 - 
42) [ 67 66 62 80 79 77 73 70 71 76 86 87 90 0 3 99 100 96 97 93 92 94 95 98 0 65 74 72 61 64 69 0 12 14 16 15 19 18 17 13 0 63 81 78 82 83 84 85 88 89 91 0 47 46 48 50 51 31 33 32 0 21 10 11 9 8 7 6 4 2 1 75 5 0 59 60 58 56 53 54 57 55 68 0 41 40 44 45 42 43 24 27 25 22 20 0 49 52 35 37 38 39 36 34 29 30 28 26 23 -1 -1 -1 -1 -1 -1 -1 -1 -1 -1 -1 -1 -1 -1 -1 -1 ] [ 934 -0 ] [ 0 0 0 ] # 0 # 0 - 
43) [ 67 66 62 80 79 77 73 70 71 76 86 87 90 0 3 99 100 96 97 93 92 94 95 98 0 65 74 72 61 64 69 0 12 14 16 15 19 18 17 13 0 63 81 78 82 83 84 85 88 89 91 0 47 46 48 50 51 31 33 32 0 21 10 11 9 8 7 6 4 2 1 75 5 0 59 60 58 56 53 54 57 55 68 0 41 40 44 45 42 43 24 27 25 22 20 0 49 52 35 37 38 39 36 34 29 30 28 26 23 -1 -1 -1 -1 -1 -1 -1 -1 -1 -1 -1 -1 -1 -1 -1 -1 ] [ 934 -0 ] [ 0 0 0 ] # 0 # 0 - 
44) [ 67 66 62 80 79 77 73 70 71 76 86 87 90 0 3 99 100 96 97 93 92 94 95 98 0 65 74 72 61 64 69 0 12 14 16 15 19 18 17 13 0 63 81 78 82 83 84 85 88 89 91 0 47 46 48 50 51 31 33 32 0 21 10 11 9 8 7 6 4 2 1 75 5 0 59 60 58 56 53 54 57 55 68 0 41 40 44 45 42 43 24 27 25 22 20 0 49 52 35 37 38 39 36 34 29 30 28 26 23 -1 -1 -1 -1 -1 -1 -1 -1 -1 -1 -1 -1 -1 -1 -1 -1 ] [ 934 -0 ] [ 0 0 0 ] # 0 # 0 - 
45) [ 67 66 62 80 79 77 73 70 71 76 86 87 90 0 3 99 100 96 97 93 92 94 95 98 0 65 74 72 61 64 69 0 12 14 16 15 19 18 17 13 0 63 81 78 82 83 84 85 88 89 91 0 47 46 48 50 51 31 33 32 0 21 10 11 9 8 7 6 4 2 1 75 5 0 59 60 58 56 53 54 57 55 68 0 41 40 44 45 42 43 24 27 25 22 20 0 49 52 35 37 38 39 36 34 29 30 28 26 23 -1 -1 -1 -1 -1 -1 -1 -1 -1 -1 -1 -1 -1 -1 -1 -1 ] [ 934 -0 ] [ 0 0 0 ] # 0 # 0 - 
46) [ 67 66 62 80 79 77 73 70 71 76 86 87 90 0 3 99 100 96 97 93 92 94 95 98 0 65 74 72 61 64 69 0 12 14 16 15 19 18 17 13 0 63 81 78 82 83 84 85 88 89 91 0 47 46 48 50 51 31 33 32 0 21 10 11 9 8 7 6 4 2 1 75 5 0 59 60 58 56 53 54 57 55 68 0 41 40 44 45 42 43 24 27 25 22 20 0 49 52 35 37 38 39 36 34 29 30 28 26 23 -1 -1 -1 -1 -1 -1 -1 -1 -1 -1 -1 -1 -1 -1 -1 -1 ] [ 934 -0 ] [ 0 0 0 ] # 0 # 0 - 
47) [ 67 66 62 80 79 77 73 70 71 76 86 87 90 0 3 99 100 96 97 93 92 94 95 98 0 65 74 72 61 64 69 0 12 14 16 15 19 18 17 13 0 63 81 78 82 83 84 85 88 89 91 0 47 46 48 50 51 31 33 32 0 21 10 11 9 8 7 6 4 2 1 75 5 0 59 60 58 56 53 54 57 55 68 0 41 40 44 45 42 43 24 27 25 22 20 0 49 52 35 37 38 39 36 34 29 30 28 26 23 -1 -1 -1 -1 -1 -1 -1 -1 -1 -1 -1 -1 -1 -1 -1 -1 ] [ 934 -0 ] [ 0 0 0 ] # 0 # 0 - 
48) [ 67 66 62 80 79 77 73 70 71 76 86 87 90 0 3 99 100 96 97 93 92 94 95 98 0 65 74 72 61 64 69 0 12 14 16 15 19 18 17 13 0 63 81 78 82 83 84 85 88 89 91 0 47 46 48 50 51 31 33 32 0 21 10 11 9 8 7 6 4 2 1 75 5 0 59 60 58 56 53 54 57 55 68 0 41 40 44 45 42 43 24 27 25 22 20 0 49 52 35 37 38 39 36 34 29 30 28 26 23 -1 -1 -1 -1 -1 -1 -1 -1 -1 -1 -1 -1 -1 -1 -1 -1 ] [ 934 -0 ] [ 0 0 0 ] # 0 # 0 - 
49) [ 67 66 62 80 79 77 73 70 71 76 86 87 90 0 3 99 100 96 97 93 92 94 95 98 0 65 74 72 61 64 69 0 12 14 16 15 19 18 17 13 0 63 81 78 82 83 84 85 88 89 91 0 47 46 48 50 51 31 33 32 0 21 10 11 9 8 7 6 4 2 1 75 5 0 59 60 58 56 53 54 57 55 68 0 41 40 44 45 42 43 24 27 25 22 20 0 49 52 35 37 38 39 36 34 29 30 28 26 23 -1 -1 -1 -1 -1 -1 -1 -1 -1 -1 -1 -1 -1 -1 -1 -1 ] [ 934 -0 ] [ 0 0 0 ] # 0 # 0 - 
50) [ 67 66 62 80 79 77 73 70 71 76 86 87 90 0 3 99 100 96 97 93 92 94 95 98 0 65 74 72 61 64 69 0 12 14 16 15 19 18 17 13 0 63 81 78 82 83 84 85 88 89 91 0 47 46 48 50 51 31 33 32 0 21 10 11 9 8 7 6 4 2 1 75 5 0 59 60 58 56 53 54 57 55 68 0 41 40 44 45 42 43 24 27 25 22 20 0 49 52 35 37 38 39 36 34 29 30 28 26 23 -1 -1 -1 -1 -1 -1 -1 -1 -1 -1 -1 -1 -1 -1 -1 -1 ] [ 934 -0 ] [ 0 0 0 ] # 0 # 0 - 
51) [ 67 66 62 80 79 77 73 70 71 76 86 87 90 0 3 99 100 96 97 93 92 94 95 98 0 65 74 72 61 64 69 0 12 14 16 15 19 18 17 13 0 63 81 78 82 83 84 85 88 89 91 0 47 46 48 50 51 31 33 32 0 21 10 11 9 8 7 6 4 2 1 75 5 0 59 60 58 56 53 54 57 55 68 0 41 40 44 45 42 43 24 27 25 22 20 0 49 52 35 37 38 39 36 34 29 30 28 26 23 -1 -1 -1 -1 -1 -1 -1 -1 -1 -1 -1 -1 -1 -1 -1 -1 ] [ 934 -0 ] [ 0 0 0 ] # 0 # 0 - 
52) [ 67 66 62 80 79 77 73 70 71 76 86 87 90 0 3 99 100 96 97 93 92 94 95 98 0 65 74 72 61 64 69 0 12 14 16 15 19 18 17 13 0 63 81 78 82 83 84 85 88 89 91 0 47 46 48 50 51 31 33 32 0 21 10 11 9 8 7 6 4 2 1 75 5 0 59 60 58 56 53 54 57 55 68 0 41 40 44 45 42 43 24 27 25 22 20 0 49 52 35 37 38 39 36 34 29 30 28 26 23 -1 -1 -1 -1 -1 -1 -1 -1 -1 -1 -1 -1 -1 -1 -1 -1 ] [ 934 -0 ] [ 0 0 0 ] # 0 # 0 - 
53) [ 67 66 62 80 79 77 73 70 71 76 86 87 90 0 3 99 100 96 97 93 92 94 95 98 0 65 74 72 61 64 69 0 12 14 16 15 19 18 17 13 0 63 81 78 82 83 84 85 88 89 91 0 47 46 48 50 51 31 33 32 0 21 10 11 9 8 7 6 4 2 1 75 5 0 59 60 58 56 53 54 57 55 68 0 41 40 44 45 42 43 24 27 25 22 20 0 49 52 35 37 38 39 36 34 29 30 28 26 23 -1 -1 -1 -1 -1 -1 -1 -1 -1 -1 -1 -1 -1 -1 -1 -1 ] [ 934 -0 ] [ 0 0 0 ] # 0 # 0 - 
54) [ 67 66 62 80 79 77 73 70 71 76 86 87 90 0 3 99 100 96 97 93 92 94 95 98 0 65 74 72 61 64 69 0 12 14 16 15 19 18 17 13 0 63 81 78 82 83 84 85 88 89 91 0 47 46 48 50 51 31 33 32 0 21 10 11 9 8 7 6 4 2 1 75 5 0 59 60 58 56 53 54 57 55 68 0 41 40 44 45 42 43 24 27 25 22 20 0 49 52 35 37 38 39 36 34 29 30 28 26 23 -1 -1 -1 -1 -1 -1 -1 -1 -1 -1 -1 -1 -1 -1 -1 -1 ] [ 934 -0 ] [ 0 0 0 ] # 0 # 0 - 
55) [ 67 66 62 80 79 77 73 70 71 76 86 87 90 0 3 99 100 96 97 93 92 94 95 98 0 65 74 72 61 64 69 0 12 14 16 15 19 18 17 13 0 63 81 78 82 83 84 85 88 89 91 0 47 46 48 50 51 31 33 32 0 21 10 11 9 8 7 6 4 2 1 75 5 0 59 60 58 56 53 54 57 55 68 0 41 40 44 45 42 43 24 27 25 22 20 0 49 52 35 37 38 39 36 34 29 30 28 26 23 -1 -1 -1 -1 -1 -1 -1 -1 -1 -1 -1 -1 -1 -1 -1 -1 ] [ 934 -0 ] [ 0 0 0 ] # 0 # 0 - 
56) [ 67 66 62 80 79 77 73 70 71 76 86 87 90 0 3 99 100 96 97 93 92 94 95 98 0 65 74 72 61 64 69 0 12 14 16 15 19 18 17 13 0 63 81 78 82 83 84 85 88 89 91 0 47 46 48 50 51 31 33 32 0 21 10 11 9 8 7 6 4 2 1 75 5 0 59 60 58 56 53 54 57 55 68 0 41 40 44 45 42 43 24 27 25 22 20 0 49 52 35 37 38 39 36 34 29 30 28 26 23 -1 -1 -1 -1 -1 -1 -1 -1 -1 -1 -1 -1 -1 -1 -1 -1 ] [ 934 -0 ] [ 0 0 0 ] # 0 # 0 - 
57) [ 67 66 62 80 79 77 73 70 71 76 86 87 90 0 3 99 100 96 97 93 92 94 95 98 0 65 74 72 61 64 69 0 12 14 16 15 19 18 17 13 0 63 81 78 82 83 84 85 88 89 91 0 47 46 48 50 51 31 33 32 0 21 10 11 9 8 7 6 4 2 1 75 5 0 59 60 58 56 53 54 57 55 68 0 41 40 44 45 42 43 24 27 25 22 20 0 49 52 35 37 38 39 36 34 29 30 28 26 23 -1 -1 -1 -1 -1 -1 -1 -1 -1 -1 -1 -1 -1 -1 -1 -1 ] [ 934 -0 ] [ 0 0 0 ] # 0 # 0 - 
58) [ 67 66 62 80 79 77 73 70 71 76 86 87 90 0 3 99 100 96 97 93 92 94 95 98 0 65 74 72 61 64 69 0 12 14 16 15 19 18 17 13 0 63 81 78 82 83 84 85 88 89 91 0 47 46 48 50 51 31 33 32 0 21 10 11 9 8 7 6 4 2 1 75 5 0 59 60 58 56 53 54 57 55 68 0 41 40 44 45 42 43 24 27 25 22 20 0 49 52 35 37 38 39 36 34 29 30 28 26 23 -1 -1 -1 -1 -1 -1 -1 -1 -1 -1 -1 -1 -1 -1 -1 -1 ] [ 934 -0 ] [ 0 0 0 ] # 0 # 0 - 
59) [ 67 66 62 80 79 77 73 70 71 76 86 87 90 0 3 99 100 96 97 93 92 94 95 98 0 65 74 72 61 64 69 0 12 14 16 15 19 18 17 13 0 63 81 78 82 83 84 85 88 89 91 0 47 46 48 50 51 31 33 32 0 21 10 11 9 8 7 6 4 2 1 75 5 0 59 60 58 56 53 54 57 55 68 0 41 40 44 45 42 43 24 27 25 22 20 0 49 52 35 37 38 39 36 34 29 30 28 26 23 -1 -1 -1 -1 -1 -1 -1 -1 -1 -1 -1 -1 -1 -1 -1 -1 ] [ 934 -0 ] [ 0 0 0 ] # 0 # 0 - 
60) [ 67 66 62 80 79 77 73 70 71 76 86 87 90 0 3 99 100 96 97 93 92 94 95 98 0 65 74 72 61 64 69 0 12 14 16 15 19 18 17 13 0 63 81 78 82 83 84 85 88 89 91 0 47 46 48 50 51 31 33 32 0 21 10 11 9 8 7 6 4 2 1 75 5 0 59 60 58 56 53 54 57 55 68 0 41 40 44 45 42 43 24 27 25 22 20 0 49 52 35 37 38 39 36 34 29 30 28 26 23 -1 -1 -1 -1 -1 -1 -1 -1 -1 -1 -1 -1 -1 -1 -1 -1 ] [ 934 -0 ] [ 0 0 0 ] # 0 # 0 - 
61) [ 67 66 62 80 79 77 73 70 71 76 86 87 90 0 3 99 100 96 97 93 92 94 95 98 0 65 74 72 61 64 69 0 12 14 16 15 19 18 17 13 0 63 81 78 82 83 84 85 88 89 91 0 47 46 48 50 51 31 33 32 0 21 10 11 9 8 7 6 4 2 1 75 5 0 59 60 58 56 53 54 57 55 68 0 41 40 44 45 42 43 24 27 25 22 20 0 49 52 35 37 38 39 36 34 29 30 28 26 23 -1 -1 -1 -1 -1 -1 -1 -1 -1 -1 -1 -1 -1 -1 -1 -1 ] [ 934 -0 ] [ 0 0 0 ] # 0 # 0 - 
62) [ 67 66 62 80 79 77 73 70 71 76 86 87 90 0 3 99 100 96 97 93 92 94 95 98 0 65 74 72 61 64 69 0 12 14 16 15 19 18 17 13 0 63 81 78 82 83 84 85 88 89 91 0 47 46 48 50 51 31 33 32 0 21 10 11 9 8 7 6 4 2 1 75 5 0 59 60 58 56 53 54 57 55 68 0 41 40 44 45 42 43 24 27 25 22 20 0 49 52 35 37 38 39 36 34 29 30 28 26 23 -1 -1 -1 -1 -1 -1 -1 -1 -1 -1 -1 -1 -1 -1 -1 -1 ] [ 934 -0 ] [ 0 0 0 ] # 0 # 0 - 
63) [ 67 66 62 80 79 77 73 70 71 76 86 87 90 0 3 99 100 96 97 93 92 94 95 98 0 65 74 72 61 64 69 0 12 14 16 15 19 18 17 13 0 63 81 78 82 83 84 85 88 89 91 0 47 46 48 50 51 31 33 32 0 21 10 11 9 8 7 6 4 2 1 75 5 0 59 60 58 56 53 54 57 55 68 0 41 40 44 45 42 43 24 27 25 22 20 0 49 52 35 37 38 39 36 34 29 30 28 26 23 -1 -1 -1 -1 -1 -1 -1 -1 -1 -1 -1 -1 -1 -1 -1 -1 ] [ 934 -0 ] [ 0 0 0 ] # 0 # 0 - 
64) [ 67 66 62 80 79 77 73 70 71 76 86 87 90 0 3 99 100 96 97 93 92 94 95 98 0 65 74 72 61 64 69 0 12 14 16 15 19 18 17 13 0 63 81 78 82 83 84 85 88 89 91 0 47 46 48 50 51 31 33 32 0 21 10 11 9 8 7 6 4 2 1 75 5 0 59 60 58 56 53 54 57 55 68 0 41 40 44 45 42 43 24 27 25 22 20 0 49 52 35 37 38 39 36 34 29 30 28 26 23 -1 -1 -1 -1 -1 -1 -1 -1 -1 -1 -1 -1 -1 -1 -1 -1 ] [ 934 -0 ] [ 0 0 0 ] # 0 # 0 - 
65) [ 67 66 62 80 79 77 73 70 71 76 86 87 90 0 3 99 100 96 97 93 92 94 95 98 0 65 74 72 61 64 69 0 12 14 16 15 19 18 17 13 0 63 81 78 82 83 84 85 88 89 91 0 47 46 48 50 51 31 33 32 0 21 10 11 9 8 7 6 4 2 1 75 5 0 59 60 58 56 53 54 57 55 68 0 41 40 44 45 42 43 24 27 25 22 20 0 49 52 35 37 38 39 36 34 29 30 28 26 23 -1 -1 -1 -1 -1 -1 -1 -1 -1 -1 -1 -1 -1 -1 -1 -1 ] [ 934 -0 ] [ 0 0 0 ] # 0 # 0 - 
66) [ 67 66 62 80 79 77 73 70 71 76 86 87 90 0 3 99 100 96 97 93 92 94 95 98 0 65 74 72 61 64 69 0 12 14 16 15 19 18 17 13 0 63 81 78 82 83 84 85 88 89 91 0 47 46 48 50 51 31 33 32 0 21 10 11 9 8 7 6 4 2 1 75 5 0 59 60 58 56 53 54 57 55 68 0 41 40 44 45 42 43 24 27 25 22 20 0 49 52 35 37 38 39 36 34 29 30 28 26 23 -1 -1 -1 -1 -1 -1 -1 -1 -1 -1 -1 -1 -1 -1 -1 -1 ] [ 934 -0 ] [ 0 0 0 ] # 0 # 0 - 
67) [ 67 66 62 80 79 77 73 70 71 76 86 87 90 0 3 99 100 96 97 93 92 94 95 98 0 65 74 72 61 64 69 0 12 14 16 15 19 18 17 13 0 63 81 78 82 83 84 85 88 89 91 0 47 46 48 50 51 31 33 32 0 21 10 11 9 8 7 6 4 2 1 75 5 0 59 60 58 56 53 54 57 55 68 0 41 40 44 45 42 43 24 27 25 22 20 0 49 52 35 37 38 39 36 34 29 30 28 26 23 -1 -1 -1 -1 -1 -1 -1 -1 -1 -1 -1 -1 -1 -1 -1 -1 ] [ 934 -0 ] [ 0 0 0 ] # 0 # 0 - 
68) [ 67 66 62 80 79 77 73 70 71 76 86 87 90 0 3 99 100 96 97 93 92 94 95 98 0 65 74 72 61 64 69 0 12 14 16 15 19 18 17 13 0 63 81 78 82 83 84 85 88 89 91 0 47 46 48 50 51 31 33 32 0 21 10 11 9 8 7 6 4 2 1 75 5 0 59 60 58 56 53 54 57 55 68 0 41 40 44 45 42 43 24 27 25 22 20 0 49 52 35 37 38 39 36 34 29 30 28 26 23 -1 -1 -1 -1 -1 -1 -1 -1 -1 -1 -1 -1 -1 -1 -1 -1 ] [ 934 -0 ] [ 0 0 0 ] # 0 # 0 - 
69) [ 67 66 62 80 79 77 73 70 71 76 86 87 90 0 3 99 100 96 97 93 92 94 95 98 0 65 74 72 61 64 69 0 12 14 16 15 19 18 17 13 0 63 81 78 82 83 84 85 88 89 91 0 47 46 48 50 51 31 33 32 0 21 10 11 9 8 7 6 4 2 1 75 5 0 59 60 58 56 53 54 57 55 68 0 41 40 44 45 42 43 24 27 25 22 20 0 49 52 35 37 38 39 36 34 29 30 28 26 23 -1 -1 -1 -1 -1 -1 -1 -1 -1 -1 -1 -1 -1 -1 -1 -1 ] [ 934 -0 ] [ 0 0 0 ] # 0 # 0 - 
70) [ 67 66 62 80 79 77 73 70 71 76 86 87 90 0 3 99 100 96 97 93 92 94 95 98 0 65 74 72 61 64 69 0 12 14 16 15 19 18 17 13 0 63 81 78 82 83 84 85 88 89 91 0 47 46 48 50 51 31 33 32 0 21 10 11 9 8 7 6 4 2 1 75 5 0 59 60 58 56 53 54 57 55 68 0 41 40 44 45 42 43 24 27 25 22 20 0 49 52 35 37 38 39 36 34 29 30 28 26 23 -1 -1 -1 -1 -1 -1 -1 -1 -1 -1 -1 -1 -1 -1 -1 -1 ] [ 934 -0 ] [ 0 0 0 ] # 0 # 0 - 
71) [ 67 66 62 80 79 77 73 70 71 76 86 87 90 0 3 99 100 96 97 93 92 94 95 98 0 65 74 72 61 64 69 0 12 14 16 15 19 18 17 13 0 63 81 78 82 83 84 85 88 89 91 0 47 46 48 50 51 31 33 32 0 21 10 11 9 8 7 6 4 2 1 75 5 0 59 60 58 56 53 54 57 55 68 0 41 40 44 45 42 43 24 27 25 22 20 0 49 52 35 37 38 39 36 34 29 30 28 26 23 -1 -1 -1 -1 -1 -1 -1 -1 -1 -1 -1 -1 -1 -1 -1 -1 ] [ 934 -0 ] [ 0 0 0 ] # 0 # 0 - 
72) [ 67 66 62 80 79 77 73 70 71 76 86 87 90 0 3 99 100 96 97 93 92 94 95 98 0 65 74 72 61 64 69 0 12 14 16 15 19 18 17 13 0 63 81 78 82 83 84 85 88 89 91 0 47 46 48 50 51 31 33 32 0 21 10 11 9 8 7 6 4 2 1 75 5 0 59 60 58 56 53 54 57 55 68 0 41 40 44 45 42 43 24 27 25 22 20 0 49 52 35 37 38 39 36 34 29 30 28 26 23 -1 -1 -1 -1 -1 -1 -1 -1 -1 -1 -1 -1 -1 -1 -1 -1 ] [ 934 -0 ] [ 0 0 0 ] # 0 # 0 - 
73) [ 67 66 62 80 79 77 73 70 71 76 86 87 90 0 3 99 100 96 97 93 92 94 95 98 0 65 74 72 61 64 69 0 12 14 16 15 19 18 17 13 0 63 81 78 82 83 84 85 88 89 91 0 47 46 48 50 51 31 33 32 0 21 10 11 9 8 7 6 4 2 1 75 5 0 59 60 58 56 53 54 57 55 68 0 41 40 44 45 42 43 24 27 25 22 20 0 49 52 35 37 38 39 36 34 29 30 28 26 23 -1 -1 -1 -1 -1 -1 -1 -1 -1 -1 -1 -1 -1 -1 -1 -1 ] [ 934 -0 ] [ 0 0 0 ] # 0 # 0 - 
74) [ 67 66 62 80 79 77 73 70 71 76 86 87 90 0 3 99 100 96 97 93 92 94 95 98 0 65 74 72 61 64 69 0 12 14 16 15 19 18 17 13 0 63 81 78 82 83 84 85 88 89 91 0 47 46 48 50 51 31 33 32 0 21 10 11 9 8 7 6 4 2 1 75 5 0 59 60 58 56 53 54 57 55 68 0 41 40 44 45 42 43 24 27 25 22 20 0 49 52 35 37 38 39 36 34 29 30 28 26 23 -1 -1 -1 -1 -1 -1 -1 -1 -1 -1 -1 -1 -1 -1 -1 -1 ] [ 934 -0 ] [ 0 0 0 ] # 0 # 0 - 
75) [ 67 66 62 80 79 77 73 70 71 76 86 87 90 0 3 99 100 96 97 93 92 94 95 98 0 65 74 72 61 64 69 0 12 14 16 15 19 18 17 13 0 63 81 78 82 83 84 85 88 89 91 0 47 46 48 50 51 31 33 32 0 21 10 11 9 8 7 6 4 2 1 75 5 0 59 60 58 56 53 54 57 55 68 0 41 40 44 45 42 43 24 27 25 22 20 0 49 52 35 37 38 39 36 34 29 30 28 26 23 -1 -1 -1 -1 -1 -1 -1 -1 -1 -1 -1 -1 -1 -1 -1 -1 ] [ 934 -0 ] [ 0 0 0 ] # 0 # 0 - 
76) [ 67 66 62 80 79 77 73 70 71 76 86 87 90 0 3 99 100 96 97 93 92 94 95 98 0 65 74 72 61 64 69 0 12 14 16 15 19 18 17 13 0 63 81 78 82 83 84 85 88 89 91 0 47 46 48 50 51 31 33 32 0 21 10 11 9 8 7 6 4 2 1 75 5 0 59 60 58 56 53 54 57 55 68 0 41 40 44 45 42 43 24 27 25 22 20 0 49 52 35 37 38 39 36 34 29 30 28 26 23 -1 -1 -1 -1 -1 -1 -1 -1 -1 -1 -1 -1 -1 -1 -1 -1 ] [ 934 -0 ] [ 0 0 0 ] # 0 # 0 - 
77) [ 67 66 62 80 79 77 73 70 71 76 86 87 90 0 3 99 100 96 97 93 92 94 95 98 0 65 74 72 61 64 69 0 12 14 16 15 19 18 17 13 0 63 81 78 82 83 84 85 88 89 91 0 47 46 48 50 51 31 33 32 0 21 10 11 9 8 7 6 4 2 1 75 5 0 59 60 58 56 53 54 57 55 68 0 41 40 44 45 42 43 24 27 25 22 20 0 49 52 35 37 38 39 36 34 29 30 28 26 23 -1 -1 -1 -1 -1 -1 -1 -1 -1 -1 -1 -1 -1 -1 -1 -1 ] [ 934 -0 ] [ 0 0 0 ] # 0 # 0 - 
78) [ 67 66 62 80 79 77 73 70 71 76 86 87 90 0 3 99 100 96 97 93 92 94 95 98 0 65 74 72 61 64 69 0 12 14 16 15 19 18 17 13 0 63 81 78 82 83 84 85 88 89 91 0 47 46 48 50 51 31 33 32 0 21 10 11 9 8 7 6 4 2 1 75 5 0 59 60 58 56 53 54 57 55 68 0 41 40 44 45 42 43 24 27 25 22 20 0 49 52 35 37 38 39 36 34 29 30 28 26 23 -1 -1 -1 -1 -1 -1 -1 -1 -1 -1 -1 -1 -1 -1 -1 -1 ] [ 934 -0 ] [ 0 0 0 ] # 0 # 0 - 
79) [ 67 66 62 80 79 77 73 70 71 76 86 87 90 0 3 99 100 96 97 93 92 94 95 98 0 65 74 72 61 64 69 0 12 14 16 15 19 18 17 13 0 63 81 78 82 83 84 85 88 89 91 0 47 46 48 50 51 31 33 32 0 21 10 11 9 8 7 6 4 2 1 75 5 0 59 60 58 56 53 54 57 55 68 0 41 40 44 45 42 43 24 27 25 22 20 0 49 52 35 37 38 39 36 34 29 30 28 26 23 -1 -1 -1 -1 -1 -1 -1 -1 -1 -1 -1 -1 -1 -1 -1 -1 ] [ 934 -0 ] [ 0 0 0 ] # 0 # 0 - 
80) [ 67 66 62 80 79 77 73 70 71 76 86 87 90 0 3 99 100 96 97 93 92 94 95 98 0 65 74 72 61 64 69 0 12 14 16 15 19 18 17 13 0 63 81 78 82 83 84 85 88 89 91 0 47 46 48 50 51 31 33 32 0 21 10 11 9 8 7 6 4 2 1 75 5 0 59 60 58 56 53 54 57 55 68 0 41 40 44 45 42 43 24 27 25 22 20 0 49 52 35 37 38 39 36 34 29 30 28 26 23 -1 -1 -1 -1 -1 -1 -1 -1 -1 -1 -1 -1 -1 -1 -1 -1 ] [ 934 -0 ] [ 0 0 0 ] # 0 # 0 - 
81) [ 67 66 62 80 79 77 73 70 71 76 86 87 90 0 3 99 100 96 97 93 92 94 95 98 0 65 74 72 61 64 69 0 12 14 16 15 19 18 17 13 0 63 81 78 82 83 84 85 88 89 91 0 47 46 48 50 51 31 33 32 0 21 10 11 9 8 7 6 4 2 1 75 5 0 59 60 58 56 53 54 57 55 68 0 41 40 44 45 42 43 24 27 25 22 20 0 49 52 35 37 38 39 36 34 29 30 28 26 23 -1 -1 -1 -1 -1 -1 -1 -1 -1 -1 -1 -1 -1 -1 -1 -1 ] [ 934 -0 ] [ 0 0 0 ] # 0 # 0 - 
82) [ 67 66 62 80 79 77 73 70 71 76 86 87 90 0 3 99 100 96 97 93 92 94 95 98 0 65 74 72 61 64 69 0 12 14 16 15 19 18 17 13 0 63 81 78 82 83 84 85 88 89 91 0 47 46 48 50 51 31 33 32 0 21 10 11 9 8 7 6 4 2 1 75 5 0 59 60 58 56 53 54 57 55 68 0 41 40 44 45 42 43 24 27 25 22 20 0 49 52 35 37 38 39 36 34 29 30 28 26 23 -1 -1 -1 -1 -1 -1 -1 -1 -1 -1 -1 -1 -1 -1 -1 -1 ] [ 934 -0 ] [ 0 0 0 ] # 0 # 0 - 
83) [ 67 66 62 80 79 77 73 70 71 76 86 87 90 0 3 99 100 96 97 93 92 94 95 98 0 65 74 72 61 64 69 0 12 14 16 15 19 18 17 13 0 63 81 78 82 83 84 85 88 89 91 0 47 46 48 50 51 31 33 32 0 21 10 11 9 8 7 6 4 2 1 75 5 0 59 60 58 56 53 54 57 55 68 0 41 40 44 45 42 43 24 27 25 22 20 0 49 52 35 37 38 39 36 34 29 30 28 26 23 -1 -1 -1 -1 -1 -1 -1 -1 -1 -1 -1 -1 -1 -1 -1 -1 ] [ 934 -0 ] [ 0 0 0 ] # 0 # 0 - 
84) [ 67 66 62 80 79 77 73 70 71 76 86 87 90 0 3 99 100 96 97 93 92 94 95 98 0 65 74 72 61 64 69 0 12 14 16 15 19 18 17 13 0 63 81 78 82 83 84 85 88 89 91 0 47 46 48 50 51 31 33 32 0 21 10 11 9 8 7 6 4 2 1 75 5 0 59 60 58 56 53 54 57 55 68 0 41 40 44 45 42 43 24 27 25 22 20 0 49 52 35 37 38 39 36 34 29 30 28 26 23 -1 -1 -1 -1 -1 -1 -1 -1 -1 -1 -1 -1 -1 -1 -1 -1 ] [ 934 -0 ] [ 0 0 0 ] # 0 # 0 - 
85) [ 67 66 62 80 79 77 73 70 71 76 86 87 90 0 3 99 100 96 97 93 92 94 95 98 0 65 74 72 61 64 69 0 12 14 16 15 19 18 17 13 0 63 81 78 82 83 84 85 88 89 91 0 47 46 48 50 51 31 33 32 0 21 10 11 9 8 7 6 4 2 1 75 5 0 59 60 58 56 53 54 57 55 68 0 41 40 44 45 42 43 24 27 25 22 20 0 49 52 35 37 38 39 36 34 29 30 28 26 23 -1 -1 -1 -1 -1 -1 -1 -1 -1 -1 -1 -1 -1 -1 -1 -1 ] [ 934 -0 ] [ 0 0 0 ] # 0 # 0 - 
86) [ 67 66 62 80 79 77 73 70 71 76 86 87 90 0 3 99 100 96 97 93 92 94 95 98 0 65 74 72 61 64 69 0 12 14 16 15 19 18 17 13 0 63 81 78 82 83 84 85 88 89 91 0 47 46 48 50 51 31 33 32 0 21 10 11 9 8 7 6 4 2 1 75 5 0 59 60 58 56 53 54 57 55 68 0 41 40 44 45 42 43 24 27 25 22 20 0 49 52 35 37 38 39 36 34 29 30 28 26 23 -1 -1 -1 -1 -1 -1 -1 -1 -1 -1 -1 -1 -1 -1 -1 -1 ] [ 934 -0 ] [ 0 0 0 ] # 0 # 0 - 
87) [ 67 66 62 80 79 77 73 70 71 76 86 87 90 0 3 99 100 96 97 93 92 94 95 98 0 65 74 72 61 64 69 0 12 14 16 15 19 18 17 13 0 63 81 78 82 83 84 85 88 89 91 0 47 46 48 50 51 31 33 32 0 21 10 11 9 8 7 6 4 2 1 75 5 0 59 60 58 56 53 54 57 55 68 0 41 40 44 45 42 43 24 27 25 22 20 0 49 52 35 37 38 39 36 34 29 30 28 26 23 -1 -1 -1 -1 -1 -1 -1 -1 -1 -1 -1 -1 -1 -1 -1 -1 ] [ 934 -0 ] [ 0 0 0 ] # 0 # 0 - 
88) [ 67 66 62 80 79 77 73 70 71 76 86 87 90 0 3 99 100 96 97 93 92 94 95 98 0 65 74 72 61 64 69 0 12 14 16 15 19 18 17 13 0 63 81 78 82 83 84 85 88 89 91 0 47 46 48 50 51 31 33 32 0 21 10 11 9 8 7 6 4 2 1 75 5 0 59 60 58 56 53 54 57 55 68 0 41 40 44 45 42 43 24 27 25 22 20 0 49 52 35 37 38 39 36 34 29 30 28 26 23 -1 -1 -1 -1 -1 -1 -1 -1 -1 -1 -1 -1 -1 -1 -1 -1 ] [ 934 -0 ] [ 0 0 0 ] # 0 # 0 - 
89) [ 67 66 62 80 79 77 73 70 71 76 86 87 90 0 3 99 100 96 97 93 92 94 95 98 0 65 74 72 61 64 69 0 12 14 16 15 19 18 17 13 0 63 81 78 82 83 84 85 88 89 91 0 47 46 48 50 51 31 33 32 0 21 10 11 9 8 7 6 4 2 1 75 5 0 59 60 58 56 53 54 57 55 68 0 41 40 44 45 42 43 24 27 25 22 20 0 49 52 35 37 38 39 36 34 29 30 28 26 23 -1 -1 -1 -1 -1 -1 -1 -1 -1 -1 -1 -1 -1 -1 -1 -1 ] [ 934 -0 ] [ 0 0 0 ] # 0 # 0 - 
90) [ 67 66 62 80 79 77 73 70 71 76 86 87 90 0 3 99 100 96 97 93 92 94 95 98 0 65 74 72 61 64 69 0 12 14 16 15 19 18 17 13 0 63 81 78 82 83 84 85 88 89 91 0 47 46 48 50 51 31 33 32 0 21 10 11 9 8 7 6 4 2 1 75 5 0 59 60 58 56 53 54 57 55 68 0 41 40 44 45 42 43 24 27 25 22 20 0 49 52 35 37 38 39 36 34 29 30 28 26 23 -1 -1 -1 -1 -1 -1 -1 -1 -1 -1 -1 -1 -1 -1 -1 -1 ] [ 934 -0 ] [ 0 0 0 ] # 0 # 0 - 
91) [ 67 66 62 80 79 77 73 70 71 76 86 87 90 0 3 99 100 96 97 93 92 94 95 98 0 65 74 72 61 64 69 0 12 14 16 15 19 18 17 13 0 63 81 78 82 83 84 85 88 89 91 0 47 46 48 50 51 31 33 32 0 21 10 11 9 8 7 6 4 2 1 75 5 0 59 60 58 56 53 54 57 55 68 0 41 40 44 45 42 43 24 27 25 22 20 0 49 52 35 37 38 39 36 34 29 30 28 26 23 -1 -1 -1 -1 -1 -1 -1 -1 -1 -1 -1 -1 -1 -1 -1 -1 ] [ 934 -0 ] [ 0 0 0 ] # 0 # 0 - 
92) [ 67 66 62 80 79 77 73 70 71 76 86 87 90 0 3 99 100 96 97 93 92 94 95 98 0 65 74 72 61 64 69 0 12 14 16 15 19 18 17 13 0 63 81 78 82 83 84 85 88 89 91 0 47 46 48 50 51 31 33 32 0 21 10 11 9 8 7 6 4 2 1 75 5 0 59 60 58 56 53 54 57 55 68 0 41 40 44 45 42 43 24 27 25 22 20 0 49 52 35 37 38 39 36 34 29 30 28 26 23 -1 -1 -1 -1 -1 -1 -1 -1 -1 -1 -1 -1 -1 -1 -1 -1 ] [ 934 -0 ] [ 0 0 0 ] # 0 # 0 - 
93) [ 67 66 62 80 79 77 73 70 71 76 86 87 90 0 3 99 100 96 97 93 92 94 95 98 0 65 74 72 61 64 69 0 12 14 16 15 19 18 17 13 0 63 81 78 82 83 84 85 88 89 91 0 47 46 48 50 51 31 33 32 0 21 10 11 9 8 7 6 4 2 1 75 5 0 59 60 58 56 53 54 57 55 68 0 41 40 44 45 42 43 24 27 25 22 20 0 49 52 35 37 38 39 36 34 29 30 28 26 23 -1 -1 -1 -1 -1 -1 -1 -1 -1 -1 -1 -1 -1 -1 -1 -1 ] [ 934 -0 ] [ 0 0 0 ] # 0 # 0 - 
94) [ 67 66 62 80 79 77 73 70 71 76 86 87 90 0 3 99 100 96 97 93 92 94 95 98 0 65 74 72 61 64 69 0 12 14 16 15 19 18 17 13 0 63 81 78 82 83 84 85 88 89 91 0 47 46 48 50 51 31 33 32 0 21 10 11 9 8 7 6 4 2 1 75 5 0 59 60 58 56 53 54 57 55 68 0 41 40 44 45 42 43 24 27 25 22 20 0 49 52 35 37 38 39 36 34 29 30 28 26 23 -1 -1 -1 -1 -1 -1 -1 -1 -1 -1 -1 -1 -1 -1 -1 -1 ] [ 934 -0 ] [ 0 0 0 ] # 0 # 0 - 
95) [ 67 66 62 80 79 77 73 70 71 76 86 87 90 0 3 99 100 96 97 93 92 94 95 98 0 65 74 72 61 64 69 0 12 14 16 15 19 18 17 13 0 63 81 78 82 83 84 85 88 89 91 0 47 46 48 50 51 31 33 32 0 21 10 11 9 8 7 6 4 2 1 75 5 0 59 60 58 56 53 54 57 55 68 0 41 40 44 45 42 43 24 27 25 22 20 0 49 52 35 37 38 39 36 34 29 30 28 26 23 -1 -1 -1 -1 -1 -1 -1 -1 -1 -1 -1 -1 -1 -1 -1 -1 ] [ 934 -0 ] [ 0 0 0 ] # 0 # 0 - 
96) [ 67 66 62 80 79 77 73 70 71 76 86 87 90 0 3 99 100 96 97 93 92 94 95 98 0 65 74 72 61 64 69 0 12 14 16 15 19 18 17 13 0 63 81 78 82 83 84 85 88 89 91 0 47 46 48 50 51 31 33 32 0 21 10 11 9 8 7 6 4 2 1 75 5 0 59 60 58 56 53 54 57 55 68 0 41 40 44 45 42 43 24 27 25 22 20 0 49 52 35 37 38 39 36 34 29 30 28 26 23 -1 -1 -1 -1 -1 -1 -1 -1 -1 -1 -1 -1 -1 -1 -1 -1 ] [ 934 -0 ] [ 0 0 0 ] # 0 # 0 - 
97) [ 67 66 62 80 79 77 73 70 71 76 86 87 90 0 3 99 100 96 97 93 92 94 95 98 0 65 74 72 61 64 69 0 12 14 16 15 19 18 17 13 0 63 81 78 82 83 84 85 88 89 91 0 47 46 48 50 51 31 33 32 0 21 10 11 9 8 7 6 4 2 1 75 5 0 59 60 58 56 53 54 57 55 68 0 41 40 44 45 42 43 24 27 25 22 20 0 49 52 35 37 38 39 36 34 29 30 28 26 23 -1 -1 -1 -1 -1 -1 -1 -1 -1 -1 -1 -1 -1 -1 -1 -1 ] [ 934 -0 ] [ 0 0 0 ] # 0 # 0 - 
98) [ 67 66 62 80 79 77 73 70 71 76 86 87 90 0 3 99 100 96 97 93 92 94 95 98 0 65 74 72 61 64 69 0 12 14 16 15 19 18 17 13 0 63 81 78 82 83 84 85 88 89 91 0 47 46 48 50 51 31 33 32 0 21 10 11 9 8 7 6 4 2 1 75 5 0 59 60 58 56 53 54 57 55 68 0 41 40 44 45 42 43 24 27 25 22 20 0 49 52 35 37 38 39 36 34 29 30 28 26 23 -1 -1 -1 -1 -1 -1 -1 -1 -1 -1 -1 -1 -1 -1 -1 -1 ] [ 934 -0 ] [ 0 0 0 ] # 0 # 0 - 
99) [ 67 66 62 80 79 77 73 70 71 76 86 87 90 0 3 99 100 96 97 93 92 94 95 98 0 65 74 72 61 64 69 0 12 14 16 15 19 18 17 13 0 63 81 78 82 83 84 85 88 89 91 0 47 46 48 50 51 31 33 32 0 21 10 11 9 8 7 6 4 2 1 75 5 0 59 60 58 56 53 54 57 55 68 0 41 40 44 45 42 43 24 27 25 22 20 0 49 52 35 37 38 39 36 34 29 30 28 26 23 -1 -1 -1 -1 -1 -1 -1 -1 -1 -1 -1 -1 -1 -1 -1 -1 ] [ 934 -0 ] [ 0 0 0 ] # 0 # 0 - 
100) [ 67 66 62 80 79 77 73 70 71 76 86 87 90 0 3 99 100 96 97 93 92 94 95 98 0 65 74 72 61 64 69 0 12 14 16 15 19 18 17 13 0 63 81 78 82 83 84 85 88 89 91 0 47 46 48 50 51 31 33 32 0 21 10 11 9 8 7 6 4 2 1 75 5 0 59 60 58 56 53 54 57 55 68 0 41 40 44 45 42 43 24 27 25 22 20 0 49 52 35 37 38 39 36 34 29 30 28 26 23 -1 -1 -1 -1 -1 -1 -1 -1 -1 -1 -1 -1 -1 -1 -1 -1 ] [ 934 -0 ] [ 0 0 0 ] # 0 # 0 - 